% Generated by MiniZinc 2.9.3
% Solver library: /home/void/Workspace-Research/Code/fzn-minicpp/minizinc
% Command line invocation: minizinc --solver org.minicpp.ml --compile --no-output-ozn rcpsp-sat.mzn dzn/J60_19_8.dzn -D makespan=87 -o fzn-sat/J60_19_8.fzn 

predicate int_lin_le_imp(array [int] of int: as,array [int] of var int: bs,int: c,var bool: r);
predicate minicpp_cumulative(array [int] of var int: s,array [int] of var int: d,array [int] of var int: r,var int: b);
array [1..2] of int: X_INTRODUCED_78_ = [1,-1];
array [1..14] of int: X_INTRODUCED_170_ = [6,1,9,7,4,2,1,10,6,7,8,1,2,6];
array [1..14] of int: X_INTRODUCED_171_ = [7,4,10,1,2,8,7,3,10,1,8,6,2,2];
array [1..17] of int: X_INTRODUCED_173_ = [1,6,2,5,5,2,10,8,1,2,4,4,6,4,5,2,4];
array [1..17] of int: X_INTRODUCED_174_ = [3,4,7,10,5,9,9,7,6,6,5,4,10,1,2,3,5];
array [1..17] of int: X_INTRODUCED_176_ = [7,7,10,3,7,1,4,3,7,6,10,1,10,3,6,2,3];
array [1..17] of int: X_INTRODUCED_177_ = [10,1,4,4,8,3,4,7,10,4,5,3,4,3,7,3,7];
array [1..12] of int: X_INTRODUCED_179_ = [1,4,3,7,8,2,6,1,2,7,4,3];
array [1..12] of int: X_INTRODUCED_180_ = [4,8,7,2,9,4,7,7,7,10,3,9];
var 0..330: X_INTRODUCED_16_;
var 0..330: X_INTRODUCED_17_;
var 0..330: X_INTRODUCED_18_;
var 0..330: X_INTRODUCED_19_;
var 0..330: X_INTRODUCED_20_;
var 0..330: X_INTRODUCED_21_;
var 0..330: X_INTRODUCED_22_;
var 0..330: X_INTRODUCED_23_;
var 0..330: X_INTRODUCED_24_;
var 0..330: X_INTRODUCED_25_;
var 0..330: X_INTRODUCED_26_;
var 0..330: X_INTRODUCED_27_;
var 0..330: X_INTRODUCED_28_;
var 0..330: X_INTRODUCED_29_;
var 0..330: X_INTRODUCED_30_;
var 0..330: X_INTRODUCED_31_;
var 0..330: X_INTRODUCED_32_;
var 0..330: X_INTRODUCED_33_;
var 0..330: X_INTRODUCED_34_;
var 0..330: X_INTRODUCED_35_;
var 0..330: X_INTRODUCED_36_;
var 0..330: X_INTRODUCED_37_;
var 0..330: X_INTRODUCED_38_;
var 0..330: X_INTRODUCED_39_;
var 0..330: X_INTRODUCED_40_;
var 0..330: X_INTRODUCED_41_;
var 0..330: X_INTRODUCED_42_;
var 0..330: X_INTRODUCED_43_;
var 0..330: X_INTRODUCED_44_;
var 0..330: X_INTRODUCED_45_;
var 0..330: X_INTRODUCED_46_;
var 0..330: X_INTRODUCED_47_;
var 0..330: X_INTRODUCED_48_;
var 0..330: X_INTRODUCED_49_;
var 0..330: X_INTRODUCED_50_;
var 0..330: X_INTRODUCED_51_;
var 0..330: X_INTRODUCED_52_;
var 0..330: X_INTRODUCED_53_;
var 0..330: X_INTRODUCED_54_;
var 0..330: X_INTRODUCED_55_;
var 0..330: X_INTRODUCED_56_;
var 0..330: X_INTRODUCED_57_;
var 0..330: X_INTRODUCED_58_;
var 0..330: X_INTRODUCED_59_;
var 0..330: X_INTRODUCED_60_;
var 0..330: X_INTRODUCED_61_;
var 0..330: X_INTRODUCED_62_;
var 0..330: X_INTRODUCED_63_;
var 0..330: X_INTRODUCED_64_;
var 0..330: X_INTRODUCED_65_;
var 0..330: X_INTRODUCED_66_;
var 0..330: X_INTRODUCED_67_;
var 0..330: X_INTRODUCED_68_;
var 0..330: X_INTRODUCED_69_;
var 0..330: X_INTRODUCED_70_;
var 0..330: X_INTRODUCED_71_;
var 0..330: X_INTRODUCED_72_;
var 0..84: X_INTRODUCED_73_;
var 0..82: X_INTRODUCED_74_;
var 0..78: X_INTRODUCED_75_;
var bool: X_INTRODUCED_135_ ::var_is_introduced :: is_defined_var;
var bool: X_INTRODUCED_136_ ::var_is_introduced :: is_defined_var;
var bool: X_INTRODUCED_137_ ::var_is_introduced :: is_defined_var;
var bool: X_INTRODUCED_138_ ::var_is_introduced :: is_defined_var;
var bool: X_INTRODUCED_139_ ::var_is_introduced :: is_defined_var;
var bool: X_INTRODUCED_140_ ::var_is_introduced :: is_defined_var;
var bool: X_INTRODUCED_141_ ::var_is_introduced :: is_defined_var;
var bool: X_INTRODUCED_142_ ::var_is_introduced :: is_defined_var;
var bool: X_INTRODUCED_143_ ::var_is_introduced :: is_defined_var;
var bool: X_INTRODUCED_144_ ::var_is_introduced :: is_defined_var;
var bool: X_INTRODUCED_145_ ::var_is_introduced :: is_defined_var;
var bool: X_INTRODUCED_146_ ::var_is_introduced :: is_defined_var;
var bool: X_INTRODUCED_147_ ::var_is_introduced :: is_defined_var;
var bool: X_INTRODUCED_148_ ::var_is_introduced :: is_defined_var;
var bool: X_INTRODUCED_149_ ::var_is_introduced :: is_defined_var;
var bool: X_INTRODUCED_150_ ::var_is_introduced :: is_defined_var;
var bool: X_INTRODUCED_151_ ::var_is_introduced :: is_defined_var;
var bool: X_INTRODUCED_152_ ::var_is_introduced :: is_defined_var;
var bool: X_INTRODUCED_153_ ::var_is_introduced :: is_defined_var;
var bool: X_INTRODUCED_154_ ::var_is_introduced :: is_defined_var;
var bool: X_INTRODUCED_155_ ::var_is_introduced :: is_defined_var;
var bool: X_INTRODUCED_156_ ::var_is_introduced :: is_defined_var;
var bool: X_INTRODUCED_157_ ::var_is_introduced :: is_defined_var;
var bool: X_INTRODUCED_158_ ::var_is_introduced :: is_defined_var;
var bool: X_INTRODUCED_159_ ::var_is_introduced :: is_defined_var;
var bool: X_INTRODUCED_160_ ::var_is_introduced :: is_defined_var;
var bool: X_INTRODUCED_161_ ::var_is_introduced :: is_defined_var;
var bool: X_INTRODUCED_162_ ::var_is_introduced :: is_defined_var;
var bool: X_INTRODUCED_163_ ::var_is_introduced :: is_defined_var;
var bool: X_INTRODUCED_164_ ::var_is_introduced :: is_defined_var;
var bool: X_INTRODUCED_165_ ::var_is_introduced :: is_defined_var;
var bool: X_INTRODUCED_167_ ::var_is_introduced :: is_defined_var;
var bool: X_INTRODUCED_168_ ::var_is_introduced :: is_defined_var;
var bool: X_INTRODUCED_169_ ::var_is_introduced :: is_defined_var;
array [1..60] of var int: s:: output_array([1..60]) = [X_INTRODUCED_16_,X_INTRODUCED_17_,X_INTRODUCED_18_,X_INTRODUCED_19_,X_INTRODUCED_20_,X_INTRODUCED_21_,X_INTRODUCED_22_,X_INTRODUCED_23_,X_INTRODUCED_24_,X_INTRODUCED_25_,X_INTRODUCED_26_,X_INTRODUCED_27_,X_INTRODUCED_28_,X_INTRODUCED_29_,X_INTRODUCED_30_,X_INTRODUCED_31_,X_INTRODUCED_32_,X_INTRODUCED_33_,X_INTRODUCED_34_,X_INTRODUCED_35_,X_INTRODUCED_36_,X_INTRODUCED_37_,X_INTRODUCED_38_,X_INTRODUCED_39_,X_INTRODUCED_40_,X_INTRODUCED_41_,X_INTRODUCED_42_,X_INTRODUCED_43_,X_INTRODUCED_44_,X_INTRODUCED_45_,X_INTRODUCED_46_,X_INTRODUCED_47_,X_INTRODUCED_48_,X_INTRODUCED_49_,X_INTRODUCED_50_,X_INTRODUCED_51_,X_INTRODUCED_52_,X_INTRODUCED_53_,X_INTRODUCED_54_,X_INTRODUCED_55_,X_INTRODUCED_56_,X_INTRODUCED_57_,X_INTRODUCED_58_,X_INTRODUCED_59_,X_INTRODUCED_60_,X_INTRODUCED_61_,X_INTRODUCED_62_,X_INTRODUCED_63_,X_INTRODUCED_64_,X_INTRODUCED_65_,X_INTRODUCED_66_,X_INTRODUCED_67_,X_INTRODUCED_68_,X_INTRODUCED_69_,X_INTRODUCED_70_,X_INTRODUCED_71_,X_INTRODUCED_72_,X_INTRODUCED_73_,X_INTRODUCED_74_,X_INTRODUCED_75_];
array [1..14] of var int: X_INTRODUCED_172_ ::var_is_introduced  = [X_INTRODUCED_22_,X_INTRODUCED_34_,X_INTRODUCED_35_,X_INTRODUCED_44_,X_INTRODUCED_46_,X_INTRODUCED_47_,X_INTRODUCED_50_,X_INTRODUCED_51_,X_INTRODUCED_55_,X_INTRODUCED_58_,X_INTRODUCED_65_,X_INTRODUCED_66_,X_INTRODUCED_70_,X_INTRODUCED_71_];
array [1..17] of var int: X_INTRODUCED_175_ ::var_is_introduced  = [X_INTRODUCED_21_,X_INTRODUCED_23_,X_INTRODUCED_26_,X_INTRODUCED_31_,X_INTRODUCED_42_,X_INTRODUCED_45_,X_INTRODUCED_53_,X_INTRODUCED_54_,X_INTRODUCED_56_,X_INTRODUCED_57_,X_INTRODUCED_59_,X_INTRODUCED_60_,X_INTRODUCED_62_,X_INTRODUCED_64_,X_INTRODUCED_67_,X_INTRODUCED_73_,X_INTRODUCED_74_];
array [1..17] of var int: X_INTRODUCED_178_ ::var_is_introduced  = [X_INTRODUCED_17_,X_INTRODUCED_18_,X_INTRODUCED_19_,X_INTRODUCED_20_,X_INTRODUCED_24_,X_INTRODUCED_25_,X_INTRODUCED_27_,X_INTRODUCED_29_,X_INTRODUCED_36_,X_INTRODUCED_39_,X_INTRODUCED_40_,X_INTRODUCED_41_,X_INTRODUCED_43_,X_INTRODUCED_48_,X_INTRODUCED_52_,X_INTRODUCED_61_,X_INTRODUCED_72_];
array [1..12] of var int: X_INTRODUCED_181_ ::var_is_introduced  = [X_INTRODUCED_16_,X_INTRODUCED_28_,X_INTRODUCED_30_,X_INTRODUCED_32_,X_INTRODUCED_33_,X_INTRODUCED_37_,X_INTRODUCED_38_,X_INTRODUCED_49_,X_INTRODUCED_63_,X_INTRODUCED_68_,X_INTRODUCED_69_,X_INTRODUCED_75_];
constraint int_lin_le(X_INTRODUCED_78_,[X_INTRODUCED_16_,X_INTRODUCED_35_],-4);
constraint int_lin_le(X_INTRODUCED_78_,[X_INTRODUCED_17_,X_INTRODUCED_53_],-10);
constraint int_lin_le(X_INTRODUCED_78_,[X_INTRODUCED_17_,X_INTRODUCED_60_],-10);
constraint int_lin_le(X_INTRODUCED_78_,[X_INTRODUCED_17_,X_INTRODUCED_75_],-10);
constraint int_lin_le(X_INTRODUCED_78_,[X_INTRODUCED_18_,X_INTRODUCED_19_],-1);
constraint int_lin_le(X_INTRODUCED_78_,[X_INTRODUCED_18_,X_INTRODUCED_20_],-1);
constraint int_lin_le(X_INTRODUCED_78_,[X_INTRODUCED_18_,X_INTRODUCED_31_],-1);
constraint int_lin_le(X_INTRODUCED_78_,[X_INTRODUCED_19_,X_INTRODUCED_21_],-4);
constraint int_lin_le(X_INTRODUCED_78_,[X_INTRODUCED_19_,X_INTRODUCED_23_],-4);
constraint int_lin_le(X_INTRODUCED_78_,[X_INTRODUCED_19_,X_INTRODUCED_25_],-4);
constraint int_lin_le(X_INTRODUCED_78_,[X_INTRODUCED_20_,X_INTRODUCED_27_],-4);
constraint int_lin_le(X_INTRODUCED_78_,[X_INTRODUCED_20_,X_INTRODUCED_28_],-4);
constraint int_lin_le(X_INTRODUCED_78_,[X_INTRODUCED_21_,X_INTRODUCED_22_],-3);
constraint int_lin_le(X_INTRODUCED_78_,[X_INTRODUCED_21_,X_INTRODUCED_37_],-3);
constraint int_lin_le(X_INTRODUCED_78_,[X_INTRODUCED_21_,X_INTRODUCED_50_],-3);
constraint int_lin_le(X_INTRODUCED_78_,[X_INTRODUCED_22_,X_INTRODUCED_24_],-7);
constraint int_lin_le(X_INTRODUCED_78_,[X_INTRODUCED_22_,X_INTRODUCED_26_],-7);
constraint int_lin_le(X_INTRODUCED_78_,[X_INTRODUCED_22_,X_INTRODUCED_29_],-7);
constraint int_lin_le(X_INTRODUCED_78_,[X_INTRODUCED_23_,X_INTRODUCED_29_],-4);
constraint int_lin_le(X_INTRODUCED_78_,[X_INTRODUCED_24_,X_INTRODUCED_41_],-8);
constraint int_lin_le(X_INTRODUCED_78_,[X_INTRODUCED_24_,X_INTRODUCED_49_],-8);
constraint int_lin_le(X_INTRODUCED_78_,[X_INTRODUCED_24_,X_INTRODUCED_66_],-8);
constraint int_lin_le(X_INTRODUCED_78_,[X_INTRODUCED_25_,X_INTRODUCED_34_],-3);
constraint int_lin_le(X_INTRODUCED_78_,[X_INTRODUCED_26_,X_INTRODUCED_53_],-7);
constraint int_lin_le(X_INTRODUCED_78_,[X_INTRODUCED_26_,X_INTRODUCED_69_],-7);
constraint int_lin_le(X_INTRODUCED_78_,[X_INTRODUCED_27_,X_INTRODUCED_32_],-4);
constraint int_lin_le(X_INTRODUCED_78_,[X_INTRODUCED_27_,X_INTRODUCED_35_],-4);
constraint int_lin_le(X_INTRODUCED_78_,[X_INTRODUCED_27_,X_INTRODUCED_64_],-4);
constraint int_lin_le(X_INTRODUCED_78_,[X_INTRODUCED_28_,X_INTRODUCED_32_],-8);
constraint int_lin_le(X_INTRODUCED_78_,[X_INTRODUCED_28_,X_INTRODUCED_44_],-8);
constraint int_lin_le(X_INTRODUCED_78_,[X_INTRODUCED_29_,X_INTRODUCED_30_],-7);
constraint int_lin_le(X_INTRODUCED_78_,[X_INTRODUCED_29_,X_INTRODUCED_34_],-7);
constraint int_lin_le(X_INTRODUCED_78_,[X_INTRODUCED_29_,X_INTRODUCED_46_],-7);
constraint int_lin_le(X_INTRODUCED_78_,[X_INTRODUCED_30_,X_INTRODUCED_58_],-7);
constraint int_lin_le(X_INTRODUCED_78_,[X_INTRODUCED_31_,X_INTRODUCED_33_],-10);
constraint int_lin_le(X_INTRODUCED_78_,[X_INTRODUCED_31_,X_INTRODUCED_40_],-10);
constraint int_lin_le(X_INTRODUCED_78_,[X_INTRODUCED_31_,X_INTRODUCED_56_],-10);
constraint int_lin_le(X_INTRODUCED_78_,[X_INTRODUCED_32_,X_INTRODUCED_33_],-2);
constraint int_lin_le(X_INTRODUCED_78_,[X_INTRODUCED_32_,X_INTRODUCED_45_],-2);
constraint int_lin_le(X_INTRODUCED_78_,[X_INTRODUCED_32_,X_INTRODUCED_57_],-2);
constraint int_lin_le(X_INTRODUCED_78_,[X_INTRODUCED_33_,X_INTRODUCED_48_],-9);
constraint int_lin_le(X_INTRODUCED_78_,[X_INTRODUCED_33_,X_INTRODUCED_51_],-9);
constraint int_lin_le(X_INTRODUCED_78_,[X_INTRODUCED_33_,X_INTRODUCED_53_],-9);
constraint int_lin_le(X_INTRODUCED_78_,[X_INTRODUCED_34_,X_INTRODUCED_36_],-4);
constraint int_lin_le(X_INTRODUCED_78_,[X_INTRODUCED_34_,X_INTRODUCED_43_],-4);
constraint int_lin_le(X_INTRODUCED_78_,[X_INTRODUCED_35_,X_INTRODUCED_51_],-10);
constraint int_lin_le(X_INTRODUCED_78_,[X_INTRODUCED_35_,X_INTRODUCED_62_],-10);
constraint int_lin_le(X_INTRODUCED_78_,[X_INTRODUCED_36_,X_INTRODUCED_38_],-10);
constraint int_lin_le(X_INTRODUCED_78_,[X_INTRODUCED_36_,X_INTRODUCED_56_],-10);
constraint int_lin_le(X_INTRODUCED_78_,[X_INTRODUCED_36_,X_INTRODUCED_57_],-10);
constraint int_lin_le(X_INTRODUCED_78_,[X_INTRODUCED_37_,X_INTRODUCED_51_],-4);
constraint int_lin_le(X_INTRODUCED_78_,[X_INTRODUCED_37_,X_INTRODUCED_52_],-4);
constraint int_lin_le(X_INTRODUCED_78_,[X_INTRODUCED_37_,X_INTRODUCED_56_],-4);
constraint int_lin_le(X_INTRODUCED_78_,[X_INTRODUCED_38_,X_INTRODUCED_39_],-7);
constraint int_lin_le(X_INTRODUCED_78_,[X_INTRODUCED_38_,X_INTRODUCED_47_],-7);
constraint int_lin_le(X_INTRODUCED_78_,[X_INTRODUCED_38_,X_INTRODUCED_59_],-7);
constraint int_lin_le(X_INTRODUCED_78_,[X_INTRODUCED_39_,X_INTRODUCED_61_],-4);
constraint int_lin_le(X_INTRODUCED_78_,[X_INTRODUCED_40_,X_INTRODUCED_42_],-5);
constraint int_lin_le(X_INTRODUCED_78_,[X_INTRODUCED_40_,X_INTRODUCED_55_],-5);
constraint int_lin_le(X_INTRODUCED_78_,[X_INTRODUCED_40_,X_INTRODUCED_60_],-5);
constraint int_lin_le(X_INTRODUCED_78_,[X_INTRODUCED_41_,X_INTRODUCED_73_],-3);
constraint int_lin_le(X_INTRODUCED_78_,[X_INTRODUCED_42_,X_INTRODUCED_68_],-5);
constraint int_lin_le(X_INTRODUCED_78_,[X_INTRODUCED_43_,X_INTRODUCED_66_],-4);
constraint int_lin_le(X_INTRODUCED_78_,[X_INTRODUCED_44_,X_INTRODUCED_60_],-1);
constraint int_lin_le(X_INTRODUCED_78_,[X_INTRODUCED_45_,X_INTRODUCED_46_],-9);
constraint int_lin_le(X_INTRODUCED_78_,[X_INTRODUCED_45_,X_INTRODUCED_48_],-9);
constraint int_lin_le(X_INTRODUCED_78_,[X_INTRODUCED_46_,X_INTRODUCED_62_],-2);
constraint int_lin_le(X_INTRODUCED_78_,[X_INTRODUCED_47_,X_INTRODUCED_49_],-8);
constraint int_lin_le(X_INTRODUCED_78_,[X_INTRODUCED_47_,X_INTRODUCED_54_],-8);
constraint int_lin_le(X_INTRODUCED_78_,[X_INTRODUCED_48_,X_INTRODUCED_49_],-3);
constraint int_lin_le(X_INTRODUCED_78_,[X_INTRODUCED_48_,X_INTRODUCED_54_],-3);
constraint int_lin_le(X_INTRODUCED_78_,[X_INTRODUCED_49_,X_INTRODUCED_71_],-7);
constraint int_lin_le(X_INTRODUCED_78_,[X_INTRODUCED_50_,X_INTRODUCED_58_],-7);
constraint int_lin_le(X_INTRODUCED_78_,[X_INTRODUCED_50_,X_INTRODUCED_61_],-7);
constraint int_lin_le(X_INTRODUCED_78_,[X_INTRODUCED_51_,X_INTRODUCED_63_],-3);
constraint int_lin_le(X_INTRODUCED_78_,[X_INTRODUCED_52_,X_INTRODUCED_57_],-7);
constraint int_lin_le(X_INTRODUCED_78_,[X_INTRODUCED_52_,X_INTRODUCED_69_],-7);
constraint int_lin_le(X_INTRODUCED_78_,[X_INTRODUCED_53_,X_INTRODUCED_63_],-9);
constraint int_lin_le(X_INTRODUCED_78_,[X_INTRODUCED_53_,X_INTRODUCED_71_],-9);
constraint int_lin_le(X_INTRODUCED_78_,[X_INTRODUCED_54_,X_INTRODUCED_63_],-7);
constraint int_lin_le(X_INTRODUCED_78_,[X_INTRODUCED_55_,X_INTRODUCED_67_],-10);
constraint int_lin_le(X_INTRODUCED_78_,[X_INTRODUCED_55_,X_INTRODUCED_75_],-10);
constraint int_lin_le(X_INTRODUCED_78_,[X_INTRODUCED_56_,X_INTRODUCED_70_],-6);
constraint int_lin_le(X_INTRODUCED_78_,[X_INTRODUCED_56_,X_INTRODUCED_75_],-6);
constraint int_lin_le(X_INTRODUCED_78_,[X_INTRODUCED_57_,X_INTRODUCED_59_],-6);
constraint int_lin_le(X_INTRODUCED_78_,[X_INTRODUCED_58_,X_INTRODUCED_65_],-1);
constraint int_lin_le(X_INTRODUCED_78_,[X_INTRODUCED_59_,X_INTRODUCED_70_],-5);
constraint int_lin_le(X_INTRODUCED_78_,[X_INTRODUCED_60_,X_INTRODUCED_67_],-4);
constraint int_lin_le(X_INTRODUCED_78_,[X_INTRODUCED_60_,X_INTRODUCED_68_],-4);
constraint int_lin_le(X_INTRODUCED_78_,[X_INTRODUCED_61_,X_INTRODUCED_62_],-3);
constraint int_lin_le(X_INTRODUCED_78_,[X_INTRODUCED_62_,X_INTRODUCED_66_],-10);
constraint int_lin_le(X_INTRODUCED_78_,[X_INTRODUCED_62_,X_INTRODUCED_68_],-10);
constraint int_lin_le(X_INTRODUCED_78_,[X_INTRODUCED_62_,X_INTRODUCED_69_],-10);
constraint int_lin_le(X_INTRODUCED_78_,[X_INTRODUCED_63_,X_INTRODUCED_65_],-7);
constraint int_lin_le(X_INTRODUCED_78_,[X_INTRODUCED_64_,X_INTRODUCED_65_],-1);
constraint int_lin_le(X_INTRODUCED_78_,[X_INTRODUCED_64_,X_INTRODUCED_72_],-1);
constraint int_lin_le(X_INTRODUCED_78_,[X_INTRODUCED_64_,X_INTRODUCED_73_],-1);
constraint int_lin_le(X_INTRODUCED_78_,[X_INTRODUCED_65_,X_INTRODUCED_74_],-8);
constraint int_lin_le(X_INTRODUCED_78_,[X_INTRODUCED_66_,X_INTRODUCED_67_],-6);
constraint int_lin_le(X_INTRODUCED_78_,[X_INTRODUCED_67_,X_INTRODUCED_71_],-2);
constraint int_lin_le(X_INTRODUCED_78_,[X_INTRODUCED_68_,X_INTRODUCED_70_],-10);
constraint int_lin_le(X_INTRODUCED_78_,[X_INTRODUCED_68_,X_INTRODUCED_72_],-10);
constraint int_lin_le(X_INTRODUCED_78_,[X_INTRODUCED_69_,X_INTRODUCED_72_],-3);
constraint int_lin_le(X_INTRODUCED_78_,[X_INTRODUCED_70_,X_INTRODUCED_74_],-2);
constraint int_lin_le(X_INTRODUCED_78_,[X_INTRODUCED_71_,X_INTRODUCED_73_],-2);
constraint int_lin_le(X_INTRODUCED_78_,[X_INTRODUCED_72_,X_INTRODUCED_74_],-7);
constraint bool_clause([X_INTRODUCED_135_,X_INTRODUCED_136_],[]);
constraint bool_clause([X_INTRODUCED_137_,X_INTRODUCED_138_],[]);
constraint bool_clause([X_INTRODUCED_139_,X_INTRODUCED_140_],[]);
constraint bool_clause([X_INTRODUCED_141_,X_INTRODUCED_142_],[]);
constraint bool_clause([X_INTRODUCED_143_,X_INTRODUCED_144_],[]);
constraint bool_clause([X_INTRODUCED_145_,X_INTRODUCED_146_],[]);
constraint bool_clause([X_INTRODUCED_147_,X_INTRODUCED_148_],[]);
constraint bool_clause([X_INTRODUCED_149_,X_INTRODUCED_150_],[]);
constraint bool_clause([X_INTRODUCED_151_,X_INTRODUCED_152_],[]);
constraint bool_clause([X_INTRODUCED_153_,X_INTRODUCED_154_],[]);
constraint bool_clause([X_INTRODUCED_155_,X_INTRODUCED_156_],[]);
constraint bool_clause([X_INTRODUCED_157_,X_INTRODUCED_158_],[]);
constraint bool_clause([X_INTRODUCED_159_,X_INTRODUCED_160_],[]);
constraint bool_clause([X_INTRODUCED_161_,X_INTRODUCED_162_],[]);
constraint bool_clause([X_INTRODUCED_163_,X_INTRODUCED_164_],[]);
constraint bool_clause([X_INTRODUCED_165_,X_INTRODUCED_167_],[]);
constraint bool_clause([X_INTRODUCED_168_,X_INTRODUCED_169_],[]);
constraint minicpp_cumulative(X_INTRODUCED_172_,X_INTRODUCED_171_,X_INTRODUCED_170_,19);
constraint minicpp_cumulative(X_INTRODUCED_175_,X_INTRODUCED_174_,X_INTRODUCED_173_,13);
constraint minicpp_cumulative(X_INTRODUCED_178_,X_INTRODUCED_177_,X_INTRODUCED_176_,21);
constraint minicpp_cumulative(X_INTRODUCED_181_,X_INTRODUCED_180_,X_INTRODUCED_179_,12);
constraint int_lin_le_imp(X_INTRODUCED_78_,[X_INTRODUCED_23_,X_INTRODUCED_53_],-4,X_INTRODUCED_135_):: defines_var(X_INTRODUCED_135_);
constraint int_lin_le_imp(X_INTRODUCED_78_,[X_INTRODUCED_53_,X_INTRODUCED_23_],-9,X_INTRODUCED_136_):: defines_var(X_INTRODUCED_136_);
constraint int_lin_le_imp(X_INTRODUCED_78_,[X_INTRODUCED_23_,X_INTRODUCED_54_],-4,X_INTRODUCED_137_):: defines_var(X_INTRODUCED_137_);
constraint int_lin_le_imp(X_INTRODUCED_78_,[X_INTRODUCED_54_,X_INTRODUCED_23_],-7,X_INTRODUCED_138_):: defines_var(X_INTRODUCED_138_);
constraint int_lin_le_imp(X_INTRODUCED_78_,[X_INTRODUCED_31_,X_INTRODUCED_53_],-10,X_INTRODUCED_139_):: defines_var(X_INTRODUCED_139_);
constraint int_lin_le_imp(X_INTRODUCED_78_,[X_INTRODUCED_53_,X_INTRODUCED_31_],-9,X_INTRODUCED_140_):: defines_var(X_INTRODUCED_140_);
constraint int_lin_le_imp(X_INTRODUCED_78_,[X_INTRODUCED_32_,X_INTRODUCED_38_],-2,X_INTRODUCED_141_):: defines_var(X_INTRODUCED_141_);
constraint int_lin_le_imp(X_INTRODUCED_78_,[X_INTRODUCED_38_,X_INTRODUCED_32_],-7,X_INTRODUCED_142_):: defines_var(X_INTRODUCED_142_);
constraint int_lin_le_imp(X_INTRODUCED_78_,[X_INTRODUCED_32_,X_INTRODUCED_68_],-2,X_INTRODUCED_143_):: defines_var(X_INTRODUCED_143_);
constraint int_lin_le_imp(X_INTRODUCED_78_,[X_INTRODUCED_68_,X_INTRODUCED_32_],-10,X_INTRODUCED_144_):: defines_var(X_INTRODUCED_144_);
constraint int_lin_le_imp(X_INTRODUCED_78_,[X_INTRODUCED_33_,X_INTRODUCED_38_],-9,X_INTRODUCED_145_):: defines_var(X_INTRODUCED_145_);
constraint int_lin_le_imp(X_INTRODUCED_78_,[X_INTRODUCED_38_,X_INTRODUCED_33_],-7,X_INTRODUCED_146_):: defines_var(X_INTRODUCED_146_);
constraint int_lin_le_imp(X_INTRODUCED_78_,[X_INTRODUCED_33_,X_INTRODUCED_68_],-9,X_INTRODUCED_147_):: defines_var(X_INTRODUCED_147_);
constraint int_lin_le_imp(X_INTRODUCED_78_,[X_INTRODUCED_68_,X_INTRODUCED_33_],-10,X_INTRODUCED_148_):: defines_var(X_INTRODUCED_148_);
constraint int_lin_le_imp(X_INTRODUCED_78_,[X_INTRODUCED_38_,X_INTRODUCED_68_],-7,X_INTRODUCED_149_):: defines_var(X_INTRODUCED_149_);
constraint int_lin_le_imp(X_INTRODUCED_78_,[X_INTRODUCED_68_,X_INTRODUCED_38_],-10,X_INTRODUCED_150_):: defines_var(X_INTRODUCED_150_);
constraint int_lin_le_imp(X_INTRODUCED_78_,[X_INTRODUCED_42_,X_INTRODUCED_53_],-5,X_INTRODUCED_151_):: defines_var(X_INTRODUCED_151_);
constraint int_lin_le_imp(X_INTRODUCED_78_,[X_INTRODUCED_53_,X_INTRODUCED_42_],-9,X_INTRODUCED_152_):: defines_var(X_INTRODUCED_152_);
constraint int_lin_le_imp(X_INTRODUCED_78_,[X_INTRODUCED_53_,X_INTRODUCED_54_],-9,X_INTRODUCED_153_):: defines_var(X_INTRODUCED_153_);
constraint int_lin_le_imp(X_INTRODUCED_78_,[X_INTRODUCED_54_,X_INTRODUCED_53_],-7,X_INTRODUCED_154_):: defines_var(X_INTRODUCED_154_);
constraint int_lin_le_imp(X_INTRODUCED_78_,[X_INTRODUCED_53_,X_INTRODUCED_59_],-9,X_INTRODUCED_155_):: defines_var(X_INTRODUCED_155_);
constraint int_lin_le_imp(X_INTRODUCED_78_,[X_INTRODUCED_59_,X_INTRODUCED_53_],-5,X_INTRODUCED_156_):: defines_var(X_INTRODUCED_156_);
constraint int_lin_le_imp(X_INTRODUCED_78_,[X_INTRODUCED_53_,X_INTRODUCED_60_],-9,X_INTRODUCED_157_):: defines_var(X_INTRODUCED_157_);
constraint int_lin_le_imp(X_INTRODUCED_78_,[X_INTRODUCED_60_,X_INTRODUCED_53_],-4,X_INTRODUCED_158_):: defines_var(X_INTRODUCED_158_);
constraint int_lin_le_imp(X_INTRODUCED_78_,[X_INTRODUCED_53_,X_INTRODUCED_62_],-9,X_INTRODUCED_159_):: defines_var(X_INTRODUCED_159_);
constraint int_lin_le_imp(X_INTRODUCED_78_,[X_INTRODUCED_62_,X_INTRODUCED_53_],-10,X_INTRODUCED_160_):: defines_var(X_INTRODUCED_160_);
constraint int_lin_le_imp(X_INTRODUCED_78_,[X_INTRODUCED_53_,X_INTRODUCED_64_],-9,X_INTRODUCED_161_):: defines_var(X_INTRODUCED_161_);
constraint int_lin_le_imp(X_INTRODUCED_78_,[X_INTRODUCED_64_,X_INTRODUCED_53_],-1,X_INTRODUCED_162_):: defines_var(X_INTRODUCED_162_);
constraint int_lin_le_imp(X_INTRODUCED_78_,[X_INTRODUCED_53_,X_INTRODUCED_67_],-9,X_INTRODUCED_163_):: defines_var(X_INTRODUCED_163_);
constraint int_lin_le_imp(X_INTRODUCED_78_,[X_INTRODUCED_67_,X_INTRODUCED_53_],-2,X_INTRODUCED_164_):: defines_var(X_INTRODUCED_164_);
constraint int_lin_le_imp(X_INTRODUCED_78_,[X_INTRODUCED_53_,X_INTRODUCED_74_],-9,X_INTRODUCED_165_):: defines_var(X_INTRODUCED_165_);
constraint int_lin_le_imp(X_INTRODUCED_78_,[X_INTRODUCED_74_,X_INTRODUCED_53_],-5,X_INTRODUCED_167_):: defines_var(X_INTRODUCED_167_);
constraint int_lin_le_imp(X_INTRODUCED_78_,[X_INTRODUCED_54_,X_INTRODUCED_62_],-7,X_INTRODUCED_168_):: defines_var(X_INTRODUCED_168_);
constraint int_lin_le_imp(X_INTRODUCED_78_,[X_INTRODUCED_62_,X_INTRODUCED_54_],-10,X_INTRODUCED_169_):: defines_var(X_INTRODUCED_169_);
solve :: int_search(s,smallest,indomain_min,complete) satisfy;
